(set-logic QF_S)
(declare-fun _var_0xINPUT_133442_() String)
(declare-fun __woorpje_diseq_pref0_() String)
(declare-fun __woorpje_diseq_suf_l0_() String)
(declare-fun __woorpje_diseq_suf_r0_() String)
(assert (=(str.++  "BRBa46q0I8" "")(str.++ _var_0xINPUT_133442_  "")) )
(check-sat)
